
;this file is automatically generated: Tue Mar 24 15:36:46 CST 2020

;declarations generated

(declare-fun Gender ( Int) Int)
(declare-fun oclExcludes ( Int Int) Bool)
(declare-fun Cardinality ( Int) Int)
(declare-fun student_year ( Int) Int)
(declare-fun obj_032e491c_efb9_4821_a4d6_32a521097d34 ( Int) Int)
(declare-fun type_095aec23_03b2_48f0_9d81_99f9faf7aa04_Module ( Int) Bool)
(declare-fun type_095aec23_03b2_48f0_9d81_99f9faf7aa04_Student ( Int) Bool)
(declare-fun type_095aec23_03b2_48f0_9d81_99f9faf7aa04_Person ( Int) Bool)
(declare-fun oclSelect ( Int Bool) Int)
(declare-fun kca4b6e8f_4774_40ca_b507_7372d2a673c9 () Int)
(declare-fun kf7bebfe2_6123_44d8_8239_fe4531940131 () Int)
(declare-fun module_year ( Int) Int)
(declare-fun container_ ( Int) Int)
(declare-fun rel_644ffe78_643d_462a_8c8c_e012b68a6143_study ( Int Int) Bool)
(declare-fun oclIncludes ( Int Int) Bool)
(declare-fun ObjAt ( Int Int) Int)

;formula(s) generated
(assert (forall ((x Int)(y Int)) (=> (and ( rel_644ffe78_643d_462a_8c8c_e012b68a6143_study ( obj_032e491c_efb9_4821_a4d6_32a521097d34 x )   ( obj_032e491c_efb9_4821_a4d6_32a521097d34 y )  )  (and (and ( type_095aec23_03b2_48f0_9d81_99f9faf7aa04_Student x )  ( type_095aec23_03b2_48f0_9d81_99f9faf7aa04_Person x ) ) ( type_095aec23_03b2_48f0_9d81_99f9faf7aa04_Module y ) )) (or (or (or (= (* ( Cardinality ( container_ x )  )  0) (* ( Cardinality ( container_ y )  )  1)) (and (= (* ( Cardinality ( container_ y )  )  1) (* ( Cardinality ( container_ x )  )  kf7bebfe2_6123_44d8_8239_fe4531940131)) (>= kf7bebfe2_6123_44d8_8239_fe4531940131 0))) (= (* ( Cardinality ( container_ x )  )  0) (* ( Cardinality ( container_ y )  )  1))) (and (= (* ( Cardinality ( container_ y )  )  1) (* ( Cardinality ( container_ x )  )  kca4b6e8f_4774_40ca_b507_7372d2a673c9)) (>= kca4b6e8f_4774_40ca_b507_7372d2a673c9 0))))))
(assert (! (and (forall ((v Int)) (=> (and ( type_095aec23_03b2_48f0_9d81_99f9faf7aa04_Student v )  ( type_095aec23_03b2_48f0_9d81_99f9faf7aa04_Person v ) ) (>= ( student_year ( obj_032e491c_efb9_4821_a4d6_32a521097d34 v )  )  1))) (forall ((v Int)) (=> (and ( type_095aec23_03b2_48f0_9d81_99f9faf7aa04_Student v )  ( type_095aec23_03b2_48f0_9d81_99f9faf7aa04_Person v ) ) (<= ( student_year ( obj_032e491c_efb9_4821_a4d6_32a521097d34 v )  )  6)))):named l0))
(assert (! (and (exists ((s Int)) (and (and ( type_095aec23_03b2_48f0_9d81_99f9faf7aa04_Student s )  ( type_095aec23_03b2_48f0_9d81_99f9faf7aa04_Person s ) ) (= ( student_year ( obj_032e491c_efb9_4821_a4d6_32a521097d34 s )  )  6))) (exists ((s Int)) (and (and ( type_095aec23_03b2_48f0_9d81_99f9faf7aa04_Student s )  ( type_095aec23_03b2_48f0_9d81_99f9faf7aa04_Person s ) ) (< ( student_year ( obj_032e491c_efb9_4821_a4d6_32a521097d34 s )  )  6)))):named l1))
(assert (! (forall ((s1 Int)) (=> (and ( type_095aec23_03b2_48f0_9d81_99f9faf7aa04_Student s1 )  ( type_095aec23_03b2_48f0_9d81_99f9faf7aa04_Person s1 ) ) (forall ((m1 Int)) (=> (and ( type_095aec23_03b2_48f0_9d81_99f9faf7aa04_Module m1 )  ( rel_644ffe78_643d_462a_8c8c_e012b68a6143_study ( obj_032e491c_efb9_4821_a4d6_32a521097d34 s1 )   ( obj_032e491c_efb9_4821_a4d6_32a521097d34 m1 )  ) ) (= ( student_year ( obj_032e491c_efb9_4821_a4d6_32a521097d34 s1 )  )  ( module_year ( obj_032e491c_efb9_4821_a4d6_32a521097d34 m1 )  ) ))))):named l2))
(assert (! (and (forall ((v Int)) (=> ( type_095aec23_03b2_48f0_9d81_99f9faf7aa04_Module v )  (>= ( module_year ( obj_032e491c_efb9_4821_a4d6_32a521097d34 v )  )  1))) (forall ((v Int)) (=> ( type_095aec23_03b2_48f0_9d81_99f9faf7aa04_Module v )  (<= ( module_year ( obj_032e491c_efb9_4821_a4d6_32a521097d34 v )  )  5)))):named l3))
(assert (! (forall ((s Int)) (=> (and ( type_095aec23_03b2_48f0_9d81_99f9faf7aa04_Student s )  ( type_095aec23_03b2_48f0_9d81_99f9faf7aa04_Person s ) ) (exists ((v Int)) (and ( type_095aec23_03b2_48f0_9d81_99f9faf7aa04_Module v )  ( rel_644ffe78_643d_462a_8c8c_e012b68a6143_study ( obj_032e491c_efb9_4821_a4d6_32a521097d34 s )   ( obj_032e491c_efb9_4821_a4d6_32a521097d34 v )  ) )))):named l4))
(assert (exists ((o Int)) (and ( type_095aec23_03b2_48f0_9d81_99f9faf7aa04_Student ( obj_032e491c_efb9_4821_a4d6_32a521097d34 o )  )  ( type_095aec23_03b2_48f0_9d81_99f9faf7aa04_Person ( obj_032e491c_efb9_4821_a4d6_32a521097d34 o )  ) )))
(assert (exists ((o Int)) (and (and ( type_095aec23_03b2_48f0_9d81_99f9faf7aa04_Student ( obj_032e491c_efb9_4821_a4d6_32a521097d34 o )  )  ( type_095aec23_03b2_48f0_9d81_99f9faf7aa04_Person ( obj_032e491c_efb9_4821_a4d6_32a521097d34 o )  ) ) ( type_095aec23_03b2_48f0_9d81_99f9faf7aa04_Module ( obj_032e491c_efb9_4821_a4d6_32a521097d34 o )  ) )))

 ;end of formula 